unsat
(:conflicts            1
 :max-generation       1
 :max-memory           25.26
 :memory               21.42
 :mk-bool-var          3477
 :mk-clause            339
 :mk-clause-binary     2961
 :num-allocs           9750723
 :num-checks           1
 :quant-instantiations 336
 :rlimit-count         183500
 :time                 0.02)
